PROBLEM NAME: 	26-city-TTP
KNAPSACK DATA TYPE: uncorrelated
DIMENSION:	26
NUMBER OF ITEMS: 	25
CAPACITY OF KNAPSACK: 	1113
MIN SPEED: 	0.1
MAX SPEED: 	1
RENTING RATIO: 	7.19
EDGE_WEIGHT_TYPE:	CEIL_2D
NODE_COORD_SECTION	(INDEX, X, Y): 
1	37	52
2	49	49
3	52	64
4	20	26
5	40	30
6	21	47
7	17	63
8	31	62
9	52	33
10	51	21
11	42	41
12	31	32
13	5	25
14	12	42
15	36	16
16	52	41
17	27	23
18	17	33
19	13	13
20	57	58
21	62	42
22	42	57
23	16	57
24	8	52
25	7	38
26	27	68
ITEMS SECTION	(INDEX, PROFIT, WEIGHT, ASSIGNED NODE NUMBER): 
1	119	1	2
2	187	896	3
3	997	367	4
4	22	690	5
5	347	613	6
6	522	874	7
7	730	122	8
8	705	486	9
9	232	823	10
10	554	463	11
11	675	589	12
12	970	325	13
13	407	1000	14
14	276	776	15
15	331	123	16
16	361	356	17
17	798	305	18
18	427	47	19
19	439	645	20
20	91	139	21
21	650	247	22
22	10	211	23
23	838	100	24
24	725	627	25
25	843	760	26
